c instance by G2
c solution = 000110000111011010000
c Known solution cost is 974 
p cnf 21 30
w 14 51 93 65 0 21 76 75 22 69 32 57 66 56 54 7 23 37 85 1 70
19 -21 8 0
6 -10 5 0
-10 -4 -7 0
20 -18 9 0
-19 -8 -4 0
-10 17 -3 0
11 19 -12 0
6 -12 10 0
-7 10 -21 0
1 -6 -4 0
2 -13 21 0
-16 2 -15 0
-20 3 10 0
3 -8 -14 0
12 16 -11 0
15 7 -14 0
-15 17 20 0
8 -1 20 0
1 -15 -18 0
-19 -9 -12 0
14 -4 7 0
-10 -2 3 0
-3 15 -12 0
3 -19 -14 0
-8 -13 14 0
7 4 -10 0
-14 -3 18 0
-9 16 18 0
-20 18 -10 0
-5 15 -10 0
